NAME : A-n10-4
DIMENSION : 10
VEHICLE NUMBER : 5
VEHICLE CAPACITY : 70
MAX POD NUMBER : 2
NODE_COORD_SECTION 
 1 34 31
 2 45 55
 3 70 80
 4 81 70
 5 85 61
 6 59 55
 7 45 60
 8 50 64
 9 80 64
 10 75 90
DEMAND_SECTION 
1 0 
2 26 
3 17 
4 6 
5 15 
6 7 
7 5 
8 15 
9 16 
10 17 
DEPOT_SECTION 
 1  
 -1  
EOF 
